p cnf 132 460
41 57 73 0
38 51 52 0
44 77 0
31 46 0
99 115 0
7 33 62 0
60 64 0
54 68 0
40 71 72 0
21 75 76 0
37 45 49 78 0
13 30 32 0
17 28 36 0
27 88 0
24 70 0
55 59 0
20 23 42 74 0
15 18 48 0
14 43 0
10 12 66 0
8 22 0
6 16 35 61 63 0
80 82 84 110 0
85 87 0
65 90 91 0
25 92 93 0
58 94 0
39 95 0
34 96 98 0
29 101 103 104 0
26 105 0
106 130 0
-47 -73 0
-44 -73 0
-31 -73 0
-44 -47 0
-31 -47 0
-31 -44 0
-21 -71 0
-71 -107 0
-11 -71 0
-21 -107 0
-11 -21 0
-11 -107 0
-16 -108 0
-85 -108 0
-92 -108 0
-16 -85 0
-16 -92 0
-85 -92 0
-96 -101 0
-89 -96 0
-96 -130 0
-89 -101 0
-101 -130 0
-89 -130 0
-71 -73 0
-73 -108 0
-73 -96 0
-71 -108 0
-71 -96 0
-96 -108 0
-21 -47 0
-16 -47 0
-47 -101 0
-16 -21 0
-21 -101 0
-16 -101 0
-44 -107 0
-44 -85 0
-44 -89 0
-85 -107 0
-89 -107 0
-85 -89 0
-11 -31 0
-31 -92 0
-31 -130 0
-11 -92 0
-11 -130 0
-92 -130 0
-33 -115 0
-111 -115 0
-112 -115 0
-33 -111 0
-33 -112 0
-111 -112 0
-17 -109 0
-27 -109 0
-86 -109 0
-17 -27 0
-17 -86 0
-27 -86 0
-48 -74 0
-74 -79 0
-43 -74 0
-48 -79 0
-43 -48 0
-43 -79 0
-6 -97 0
-80 -97 0
-87 -97 0
-6 -80 0
-6 -87 0
-80 -87 0
-109 -115 0
-74 -115 0
-97 -115 0
-74 -109 0
-97 -109 0
-74 -97 0
-17 -33 0
-33 -48 0
-6 -33 0
-17 -48 0
-6 -17 0
-6 -48 0
-27 -111 0
-79 -111 0
-80 -111 0
-27 -79 0
-27 -80 0
-79 -80 0
-86 -112 0
-43 -112 0
-87 -112 0
-43 -86 0
-86 -87 0
-43 -87 0
-72 -78 0
-32 -72 0
-72 -113 0
-32 -78 0
-78 -113 0
-32 -113 0
-23 -50 0
-12 -23 0
-23 -114 0
-12 -50 0
-50 -114 0
-12 -114 0
-110 -116 0
-90 -116 0
-93 -116 0
-90 -110 0
-93 -110 0
-90 -93 0
-39 -58 0
-58 -117 0
-58 -119 0
-39 -117 0
-39 -119 0
-117 -119 0
-23 -72 0
-72 -116 0
-58 -72 0
-23 -116 0
-23 -58 0
-58 -116 0
-50 -78 0
-78 -110 0
-39 -78 0
-50 -110 0
-39 -50 0
-39 -110 0
-12 -32 0
-32 -90 0
-32 -117 0
-12 -90 0
-12 -117 0
-90 -117 0
-113 -114 0
-93 -113 0
-113 -119 0
-93 -114 0
-114 -119 0
-93 -119 0
-7 -120 0
-81 -120 0
-60 -120 0
-7 -81 0
-7 -60 0
-60 -81 0
-54 -75 0
-49 -54 0
-13 -54 0
-49 -75 0
-13 -75 0
-13 -49 0
-8 -63 0
-8 -82 0
-8 -65 0
-63 -82 0
-63 -65 0
-65 -82 0
-103 -121 0
-105 -121 0
-121 -122 0
-103 -105 0
-103 -122 0
-105 -122 0
-54 -120 0
-8 -120 0
-120 -121 0
-8 -54 0
-54 -121 0
-8 -121 0
-7 -75 0
-7 -63 0
-7 -103 0
-63 -75 0
-75 -103 0
-63 -103 0
-49 -81 0
-81 -82 0
-81 -105 0
-49 -82 0
-49 -105 0
-82 -105 0
-13 -60 0
-60 -65 0
-60 -122 0
-13 -65 0
-13 -122 0
-65 -122 0
-52 -56 0
-56 -77 0
-52 -77 0
-37 -68 0
-68 -123 0
-37 -123 0
-59 -124 0
-14 -59 0
-14 -124 0
-56 -68 0
-56 -59 0
-59 -68 0
-37 -52 0
-52 -124 0
-37 -124 0
-77 -123 0
-14 -77 0
-14 -123 0
-57 -69 0
-69 -125 0
-38 -69 0
-69 -118 0
-57 -125 0
-38 -57 0
-57 -118 0
-38 -125 0
-118 -125 0
-38 -118 0
-9 -99 0
-9 -62 0
-9 -83 0
-9 -64 0
-62 -99 0
-83 -99 0
-64 -99 0
-62 -83 0
-62 -64 0
-64 -83 0
-42 -55 0
-18 -55 0
-53 -55 0
-55 -66 0
-18 -42 0
-42 -53 0
-42 -66 0
-18 -53 0
-18 -66 0
-53 -66 0
-22 -126 0
-22 -35 0
-22 -84 0
-22 -91 0
-35 -126 0
-84 -126 0
-91 -126 0
-35 -84 0
-35 -91 0
-84 -91 0
-98 -128 0
-29 -128 0
-26 -128 0
-128 -129 0
-29 -98 0
-26 -98 0
-98 -129 0
-26 -29 0
-29 -129 0
-26 -129 0
-9 -69 0
-55 -69 0
-22 -69 0
-69 -128 0
-9 -55 0
-9 -22 0
-9 -128 0
-22 -55 0
-55 -128 0
-22 -128 0
-57 -99 0
-42 -57 0
-57 -126 0
-57 -98 0
-42 -99 0
-99 -126 0
-98 -99 0
-42 -126 0
-42 -98 0
-98 -126 0
-62 -125 0
-18 -125 0
-35 -125 0
-29 -125 0
-18 -62 0
-35 -62 0
-29 -62 0
-18 -35 0
-18 -29 0
-29 -35 0
-38 -83 0
-38 -53 0
-38 -84 0
-26 -38 0
-53 -83 0
-83 -84 0
-26 -83 0
-53 -84 0
-26 -53 0
-26 -84 0
-64 -118 0
-66 -118 0
-91 -118 0
-118 -129 0
-64 -66 0
-64 -91 0
-64 -129 0
-66 -91 0
-66 -129 0
-91 -129 0
-36 -127 0
-70 -127 0
-36 -70 0
-61 -100 0
-25 -100 0
-25 -61 0
-34 -104 0
-34 -106 0
-104 -106 0
-100 -127 0
-34 -127 0
-34 -100 0
-36 -61 0
-36 -104 0
-61 -104 0
-25 -70 0
-70 -106 0
-25 -106 0
-19 -41 0
-41 -51 0
-41 -67 0
-41 -46 0
-19 -51 0
-19 -67 0
-19 -46 0
-51 -67 0
-46 -51 0
-46 -67 0
-40 -76 0
-40 -45 0
-30 -40 0
-40 -132 0
-45 -76 0
-30 -76 0
-76 -132 0
-30 -45 0
-45 -132 0
-30 -132 0
-28 -102 0
-88 -102 0
-102 -131 0
-24 -102 0
-28 -88 0
-28 -131 0
-24 -28 0
-88 -131 0
-24 -88 0
-24 -131 0
-15 -20 0
-5 -20 0
-10 -20 0
-4 -20 0
-5 -15 0
-10 -15 0
-4 -15 0
-5 -10 0
-4 -5 0
-4 -10 0
-3 -94 0
-94 -95 0
-2 -94 0
-1 -94 0
-3 -95 0
-2 -3 0
-1 -3 0
-2 -95 0
-1 -95 0
-1 -2 0
-40 -41 0
-41 -102 0
-20 -41 0
-41 -94 0
-40 -102 0
-20 -40 0
-40 -94 0
-20 -102 0
-94 -102 0
-20 -94 0
-19 -76 0
-19 -28 0
-15 -19 0
-3 -19 0
-28 -76 0
-15 -76 0
-3 -76 0
-15 -28 0
-3 -28 0
-3 -15 0
-45 -51 0
-51 -88 0
-5 -51 0
-51 -95 0
-45 -88 0
-5 -45 0
-45 -95 0
-5 -88 0
-88 -95 0
-5 -95 0
-30 -67 0
-67 -131 0
-10 -67 0
-2 -67 0
-30 -131 0
-10 -30 0
-2 -30 0
-10 -131 0
-2 -131 0
-2 -10 0
-46 -132 0
-24 -46 0
-4 -46 0
-1 -46 0
-24 -132 0
-4 -132 0
-1 -132 0
-4 -24 0
-1 -24 0
-1 -4 0
